Traveling Salesman Problem/TSP_generados/Aleatorio1620390903_8.tsp
NAME: Aleatorio1620390903_8.tsp
COMMENT: Randomly generated scenario
TYPE: TSP
DIMENSION: 8
EDGE_WEIGHT_TYPE: ATT
NODE_COORD_SECTION
1 4.91 19.56
2 32.9 33.87
3 0.93 35.95
4 12.25 22.85
5 41.8 5.02
6 49.72 32.23
7 36.25 17.48
8 46.18 32.28
