Traveling Salesman Problem/TSP_generados/Aleatorio1620390903_8.opt.tour
NAME: Aleatorio1620390903_8.opt.tour
COMMENT: Optimal solution for Aleatorio1620390903_8 (140.43551711510224)
TYPE: TOUR
DIMENSION: 8
TOUR_SECTION
1 3 2 8 6 5 7 4
-1
EOF
